250
3
85, 26, 48, 21, 22, 95, 43, 45, 55, 52, 11, 5, 7, 3, 10, 30, 35, 20, 15, 61, 2, 4, 1, 8, 9, 12, 23, 31, 50, 70, 24, 75, 60, 57, 41, 40, 32, 33, 90, 91
79, 32, 47, 18, 26, 85, 33, 40, 45, 59, 13, 5, 2, 3, 15, 20, 10, 11, 12, 13, 1, 4, 6, 7, 14, 27, 35, 50, 9, 21, 22, 31, 90, 91, 60, 61, 17, 18, 62, 63     
1, 1, 2, 1, 2, 1, 1, 2, 2, 2, 1, 1, 2, 3, 3, 3, 3, 3, 1, 2, 3, 3, 1, 2, 2, 1, 3, 1, 3, 3, 1, 1, 2, 2, 3, 3, 2, 1, 3, 2